N = 20;
T = 56;
K = 2;
C = 130.0;
furnance = 3;
color = 5;
machines = [9 10];
products = [444 350 310 342 398 315 331 304 330 278 277 323 125 281 316 338 225 321 234 97];
MINik = [[14.0 14.0],[14.0 14.0],[14.0 14.0],[14.0 14.0],[14.0 14.0],[14.0 14.0],[14.0 14.0],[14.0 14.0],[14.0 14.0],[14.0 14.0],[14.0 14.0],[14.0 14.0],[14.0 14.0],[14.0 14.0],[14.0 14.0],[14.0 14.0],[14.0 14.0],[14.0 14.0],[14.0 14.0],[14.0 14.0]];
MAXik = [[20.0 20.0],[20.0 20.0],[20.0 20.0],[20.0 20.0],[20.0 0.0],[20.0 20.0],[20.0 20.0],[20.0 20.0],[20.0 20.0],[20.0 20.0],[20.0 20.0],[20.0 20.0],[20.0 20.0],[20.0 20.0],[20.0 20.0],[20.0 20.0],[20.0 20.0],[20.0 20.0],[20.0 20.0],[20.0 20.0]];
Pik = [[2.187 2.187],[2.9929824000000003 2.9929824000000003],[2.43 2.43],[2.99376 2.99376],[2.97432 2.97432],[2.78964 2.78964],[2.91924 2.91924],[2.7702 2.7702],[2.97432 2.97432],[3.092904 3.092904],[2.395008 2.395008],[2.69892 2.69892],[2.593296 2.593296],[3.193344 3.193344],[2.5515 2.5515],[2.91276 2.91276],[2.555712 2.555712],[2.63088 2.63088],[2.72646 2.72646],[2.43 2.43]];
Dit = [[0.0 0.0 0.0 0.0 0.0 0.0 0.0 0.0 0.0 0.0 0.0 0.0 0.0 34.0 0.0 0.0 0.0 0.0 0.0 0.0 0.0 0.0 0.0 0.0 0.0 0.0 0.0 0.0 0.0 0.0 0.0 0.0 0.0 0.0 34.0 0.0 0.0 0.0 0.0 0.0 0.0 34.0 0.0 0.0 0.0 0.0 0.0 0.0 34.0 0.0 0.0 0.0 0.0 0.0 0.0 34.0],[0.0 0.0 0.0 0.0 0.0 0.0 47.0 0.0 0.0 0.0 0.0 0.0 0.0 0.0 0.0 0.0 0.0 0.0 0.0 0.0 40.0 0.0 0.0 0.0 0.0 0.0 0.0 39.0 0.0 0.0 0.0 0.0 0.0 0.0 38.0 0.0 0.0 0.0 0.0 0.0 0.0 38.0 0.0 0.0 0.0 0.0 0.0 0.0 0.0 0.0 0.0 0.0 0.0 0.0 0.0 37.0],[0.0 0.0 0.0 0.0 0.0 0.0 38.0 0.0 0.0 0.0 0.0 0.0 0.0 38.0 0.0 0.0 0.0 0.0 0.0 0.0 38.0 0.0 0.0 0.0 0.0 0.0 0.0 38.0 0.0 0.0 0.0 0.0 0.0 0.0 0.0 0.0 0.0 0.0 0.0 0.0 0.0 37.0 0.0 0.0 0.0 0.0 0.0 0.0 38.0 0.0 0.0 0.0 0.0 0.0 0.0 36.0],[0.0 0.0 0.0 0.0 0.0 0.0 0.0 0.0 0.0 0.0 0.0 0.0 0.0 0.0 0.0 0.0 0.0 0.0 0.0 0.0 40.0 0.0 0.0 0.0 0.0 0.0 0.0 0.0 0.0 0.0 0.0 0.0 0.0 0.0 39.0 0.0 0.0 0.0 0.0 0.0 0.0 0.0 0.0 0.0 0.0 0.0 0.0 0.0 0.0 0.0 0.0 0.0 0.0 0.0 0.0 39.0],[0.0 0.0 0.0 0.0 0.0 0.0 47.0 0.0 0.0 0.0 0.0 0.0 0.0 41.0 0.0 0.0 0.0 0.0 0.0 0.0 41.0 0.0 0.0 0.0 0.0 0.0 0.0 39.0 0.0 0.0 0.0 0.0 0.0 0.0 0.0 0.0 0.0 0.0 0.0 0.0 0.0 38.0 0.0 0.0 0.0 0.0 0.0 0.0 36.0 0.0 0.0 0.0 0.0 0.0 0.0 0.0],[0.0 0.0 0.0 0.0 0.0 0.0 44.0 0.0 0.0 0.0 0.0 0.0 0.0 42.0 0.0 0.0 0.0 0.0 0.0 0.0 40.0 0.0 0.0 0.0 0.0 0.0 0.0 0.0 0.0 0.0 0.0 0.0 0.0 0.0 38.0 0.0 0.0 0.0 0.0 0.0 0.0 38.0 0.0 0.0 0.0 0.0 0.0 0.0 36.0 0.0 0.0 0.0 0.0 0.0 0.0 38.0],[0.0 0.0 0.0 0.0 0.0 0.0 46.0 0.0 0.0 0.0 0.0 0.0 0.0 0.0 0.0 0.0 0.0 0.0 0.0 0.0 39.0 0.0 0.0 0.0 0.0 0.0 0.0 0.0 0.0 0.0 0.0 0.0 0.0 0.0 40.0 0.0 0.0 0.0 0.0 0.0 0.0 0.0 0.0 0.0 0.0 0.0 0.0 0.0 38.0 0.0 0.0 0.0 0.0 0.0 0.0 0.0],[0.0 0.0 0.0 0.0 0.0 0.0 0.0 0.0 0.0 0.0 0.0 0.0 0.0 44.0 0.0 0.0 0.0 0.0 0.0 0.0 39.0 0.0 0.0 0.0 0.0 0.0 0.0 0.0 0.0 0.0 0.0 0.0 0.0 0.0 38.0 0.0 0.0 0.0 0.0 0.0 0.0 0.0 0.0 0.0 0.0 0.0 0.0 0.0 0.0 0.0 0.0 0.0 0.0 0.0 0.0 0.0],[0.0 0.0 0.0 0.0 0.0 0.0 0.0 0.0 0.0 0.0 0.0 0.0 0.0 42.0 0.0 0.0 0.0 0.0 0.0 0.0 40.0 0.0 0.0 0.0 0.0 0.0 0.0 39.0 0.0 0.0 0.0 0.0 0.0 0.0 38.0 0.0 0.0 0.0 0.0 0.0 0.0 38.0 0.0 0.0 0.0 0.0 0.0 0.0 37.0 0.0 0.0 0.0 0.0 0.0 0.0 36.0],[0.0 0.0 0.0 0.0 0.0 0.0 49.0 0.0 0.0 0.0 0.0 0.0 0.0 43.0 0.0 0.0 0.0 0.0 0.0 0.0 0.0 0.0 0.0 0.0 0.0 0.0 0.0 38.0 0.0 0.0 0.0 0.0 0.0 0.0 38.0 0.0 0.0 0.0 0.0 0.0 0.0 39.0 0.0 0.0 0.0 0.0 0.0 0.0 38.0 0.0 0.0 0.0 0.0 0.0 0.0 38.0],[0.0 0.0 0.0 0.0 0.0 0.0 0.0 0.0 0.0 0.0 0.0 0.0 0.0 0.0 0.0 0.0 0.0 0.0 0.0 0.0 0.0 0.0 0.0 0.0 0.0 0.0 0.0 37.0 0.0 0.0 0.0 0.0 0.0 0.0 38.0 0.0 0.0 0.0 0.0 0.0 0.0 38.0 0.0 0.0 0.0 0.0 0.0 0.0 37.0 0.0 0.0 0.0 0.0 0.0 0.0 37.0],[0.0 0.0 0.0 0.0 0.0 0.0 43.0 0.0 0.0 0.0 0.0 0.0 0.0 0.0 0.0 0.0 0.0 0.0 0.0 0.0 0.0 0.0 0.0 0.0 0.0 0.0 0.0 38.0 0.0 0.0 0.0 0.0 0.0 0.0 0.0 0.0 0.0 0.0 0.0 0.0 0.0 38.0 0.0 0.0 0.0 0.0 0.0 0.0 37.0 0.0 0.0 0.0 0.0 0.0 0.0 37.0],[0.0 0.0 0.0 0.0 0.0 0.0 41.0 0.0 0.0 0.0 0.0 0.0 0.0 41.0 0.0 0.0 0.0 0.0 0.0 0.0 39.0 0.0 0.0 0.0 0.0 0.0 0.0 39.0 0.0 0.0 0.0 0.0 0.0 0.0 38.0 0.0 0.0 0.0 0.0 0.0 0.0 39.0 0.0 0.0 0.0 0.0 0.0 0.0 0.0 0.0 0.0 0.0 0.0 0.0 0.0 37.0],[0.0 0.0 0.0 0.0 0.0 0.0 51.0 0.0 0.0 0.0 0.0 0.0 0.0 43.0 0.0 0.0 0.0 0.0 0.0 0.0 41.0 0.0 0.0 0.0 0.0 0.0 0.0 39.0 0.0 0.0 0.0 0.0 0.0 0.0 39.0 0.0 0.0 0.0 0.0 0.0 0.0 0.0 0.0 0.0 0.0 0.0 0.0 0.0 38.0 0.0 0.0 0.0 0.0 0.0 0.0 37.0],[0.0 0.0 0.0 0.0 0.0 0.0 40.0 0.0 0.0 0.0 0.0 0.0 0.0 40.0 0.0 0.0 0.0 0.0 0.0 0.0 0.0 0.0 0.0 0.0 0.0 0.0 0.0 39.0 0.0 0.0 0.0 0.0 0.0 0.0 37.0 0.0 0.0 0.0 0.0 0.0 0.0 0.0 0.0 0.0 0.0 0.0 0.0 0.0 37.0 0.0 0.0 0.0 0.0 0.0 0.0 0.0],[0.0 0.0 0.0 0.0 0.0 0.0 46.0 0.0 0.0 0.0 0.0 0.0 0.0 43.0 0.0 0.0 0.0 0.0 0.0 0.0 40.0 0.0 0.0 0.0 0.0 0.0 0.0 37.0 0.0 0.0 0.0 0.0 0.0 0.0 39.0 0.0 0.0 0.0 0.0 0.0 0.0 39.0 0.0 0.0 0.0 0.0 0.0 0.0 0.0 0.0 0.0 0.0 0.0 0.0 0.0 0.0],[0.0 0.0 0.0 0.0 0.0 0.0 40.0 0.0 0.0 0.0 0.0 0.0 0.0 40.0 0.0 0.0 0.0 0.0 0.0 0.0 39.0 0.0 0.0 0.0 0.0 0.0 0.0 38.0 0.0 0.0 0.0 0.0 0.0 0.0 0.0 0.0 0.0 0.0 0.0 0.0 0.0 38.0 0.0 0.0 0.0 0.0 0.0 0.0 38.0 0.0 0.0 0.0 0.0 0.0 0.0 39.0],[0.0 0.0 0.0 0.0 0.0 0.0 42.0 0.0 0.0 0.0 0.0 0.0 0.0 0.0 0.0 0.0 0.0 0.0 0.0 0.0 38.0 0.0 0.0 0.0 0.0 0.0 0.0 0.0 0.0 0.0 0.0 0.0 0.0 0.0 0.0 0.0 0.0 0.0 0.0 0.0 0.0 36.0 0.0 0.0 0.0 0.0 0.0 0.0 0.0 0.0 0.0 0.0 0.0 0.0 0.0 0.0],[0.0 0.0 0.0 0.0 0.0 0.0 0.0 0.0 0.0 0.0 0.0 0.0 0.0 42.0 0.0 0.0 0.0 0.0 0.0 0.0 0.0 0.0 0.0 0.0 0.0 0.0 0.0 38.0 0.0 0.0 0.0 0.0 0.0 0.0 0.0 0.0 0.0 0.0 0.0 0.0 0.0 38.0 0.0 0.0 0.0 0.0 0.0 0.0 37.0 0.0 0.0 0.0 0.0 0.0 0.0 38.0],[0.0 0.0 0.0 0.0 0.0 0.0 38.0 0.0 0.0 0.0 0.0 0.0 0.0 38.0 0.0 0.0 0.0 0.0 0.0 0.0 38.0 0.0 0.0 0.0 0.0 0.0 0.0 38.0 0.0 0.0 0.0 0.0 0.0 0.0 38.0 0.0 0.0 0.0 0.0 0.0 0.0 0.0 0.0 0.0 0.0 0.0 0.0 0.0 38.0 0.0 0.0 0.0 0.0 0.0 0.0 37.0]];
Sijk = [[[0.0 0.0],[10.0 11.0],[7.0 8.0],[12.0 8.0],[11.0 1.0E9],[6.0 7.0],[7.0 10.0],[7.0 8.0],[7.0 10.0],[9.0 13.0],[9.0 6.0],[10.0 11.0],[11.0 8.0],[7.0 8.0],[7.0 10.0],[8.0 12.0],[7.0 7.0],[6.0 10.0],[9.0 11.0],[5.0 6.0]]
[[5.0 9.0],[0.0 0.0],[8.0 8.0],[8.0 11.0],[9.0 1.0E9],[9.0 11.0],[12.0 11.0],[7.0 11.0],[7.0 7.0],[7.0 8.0],[10.0 8.0],[8.0 7.0],[9.0 10.0],[12.0 10.0],[6.0 10.0],[12.0 7.0],[7.0 6.0],[6.0 8.0],[6.0 10.0],[10.0 8.0]]
[[6.0 7.0],[10.0 11.0],[0.0 0.0],[12.0 10.0],[9.0 1.0E9],[9.0 8.0],[6.0 12.0],[8.0 8.0],[10.0 10.0],[8.0 12.0],[8.0 6.0],[7.0 8.0],[8.0 10.0],[8.0 8.0],[10.0 7.0],[9.0 11.0],[6.0 10.0],[10.0 8.0],[10.0 9.0],[8.0 6.0]]
[[7.0 6.0],[8.0 11.0],[9.0 7.0],[0.0 0.0],[7.0 1.0E9],[11.0 9.0],[7.0 9.0],[9.0 9.0],[7.0 7.0],[11.0 12.0],[5.0 6.0],[10.0 6.0],[9.0 10.0],[8.0 10.0],[11.0 9.0],[7.0 12.0],[10.0 10.0],[8.0 9.0],[7.0 7.0],[9.0 6.0]]
[[7.0 8.0],[10.0 7.0],[10.0 10.0],[7.0 8.0],[0.0 0.0],[12.0 11.0],[10.0 9.0],[6.0 7.0],[8.0 10.0],[9.0 10.0],[8.0 8.0],[9.0 7.0],[7.0 8.0],[12.0 12.0],[9.0 6.0],[8.0 7.0],[6.0 8.0],[11.0 8.0],[9.0 7.0],[10.0 9.0]]
[[8.0 8.0],[10.0 12.0],[9.0 6.0],[12.0 8.0],[9.0 1.0E9],[0.0 0.0],[9.0 8.0],[9.0 11.0],[8.0 9.0],[10.0 10.0],[9.0 6.0],[9.0 7.0],[10.0 8.0],[10.0 12.0],[10.0 8.0],[10.0 12.0],[9.0 9.0],[9.0 7.0],[11.0 11.0],[9.0 9.0]]
[[8.0 7.0],[7.0 12.0],[10.0 9.0],[8.0 11.0],[12.0 1.0E9],[9.0 11.0],[0.0 0.0],[7.0 11.0],[11.0 8.0],[8.0 10.0],[6.0 7.0],[11.0 8.0],[10.0 10.0],[12.0 7.0],[7.0 9.0],[8.0 7.0],[11.0 7.0],[9.0 9.0],[9.0 11.0],[9.0 5.0]]
[[5.0 8.0],[8.0 11.0],[10.0 8.0],[10.0 9.0],[7.0 1.0E9],[8.0 8.0],[6.0 7.0],[0.0 0.0],[8.0 10.0],[8.0 12.0],[8.0 9.0],[9.0 11.0],[9.0 8.0],[11.0 10.0],[9.0 11.0],[12.0 7.0],[9.0 6.0],[8.0 10.0],[10.0 9.0],[9.0 6.0]]
[[6.0 9.0],[12.0 12.0],[8.0 9.0],[12.0 8.0],[10.0 1.0E9],[7.0 9.0],[10.0 12.0],[11.0 7.0],[0.0 0.0],[12.0 8.0],[6.0 8.0],[9.0 8.0],[11.0 7.0],[7.0 7.0],[8.0 10.0],[8.0 9.0],[7.0 10.0],[11.0 10.0],[6.0 7.0],[7.0 7.0]]
[[5.0 7.0],[11.0 12.0],[6.0 10.0],[10.0 7.0],[8.0 1.0E9],[9.0 7.0],[11.0 9.0],[11.0 7.0],[11.0 8.0],[0.0 0.0],[9.0 7.0],[8.0 10.0],[6.0 10.0],[7.0 8.0],[10.0 8.0],[7.0 11.0],[8.0 8.0],[8.0 10.0],[9.0 10.0],[8.0 8.0]]
[[8.0 9.0],[8.0 12.0],[9.0 10.0],[10.0 8.0],[7.0 1.0E9],[10.0 10.0],[9.0 9.0],[9.0 9.0],[7.0 11.0],[10.0 10.0],[0.0 0.0],[11.0 6.0],[7.0 7.0],[7.0 9.0],[9.0 6.0],[9.0 7.0],[11.0 6.0],[10.0 8.0],[7.0 8.0],[10.0 9.0]]
[[8.0 7.0],[11.0 12.0],[9.0 8.0],[8.0 8.0],[7.0 1.0E9],[9.0 7.0],[8.0 7.0],[11.0 7.0],[10.0 10.0],[8.0 10.0],[8.0 8.0],[0.0 0.0],[6.0 6.0],[12.0 12.0],[6.0 10.0],[11.0 9.0],[6.0 8.0],[9.0 7.0],[6.0 10.0],[8.0 9.0]]
[[7.0 9.0],[8.0 8.0],[9.0 7.0],[11.0 11.0],[8.0 1.0E9],[12.0 8.0],[10.0 7.0],[9.0 8.0],[12.0 9.0],[12.0 9.0],[9.0 8.0],[8.0 10.0],[0.0 0.0],[10.0 13.0],[10.0 10.0],[10.0 10.0],[6.0 9.0],[7.0 9.0],[6.0 7.0],[6.0 9.0]]
[[7.0 7.0],[7.0 10.0],[10.0 7.0],[12.0 11.0],[8.0 1.0E9],[10.0 8.0],[10.0 10.0],[11.0 10.0],[9.0 11.0],[11.0 12.0],[6.0 7.0],[7.0 8.0],[11.0 10.0],[0.0 0.0],[6.0 6.0],[11.0 7.0],[8.0 11.0],[8.0 9.0],[6.0 9.0],[9.0 8.0]]
[[6.0 9.0],[10.0 10.0],[9.0 7.0],[9.0 10.0],[8.0 1.0E9],[11.0 9.0],[9.0 11.0],[10.0 11.0],[12.0 9.0],[7.0 10.0],[8.0 8.0],[11.0 6.0],[7.0 10.0],[11.0 9.0],[0.0 0.0],[11.0 12.0],[10.0 8.0],[11.0 10.0],[8.0 6.0],[9.0 9.0]]
[[6.0 8.0],[11.0 12.0],[7.0 7.0],[8.0 12.0],[7.0 1.0E9],[10.0 11.0],[8.0 11.0],[7.0 7.0],[10.0 10.0],[7.0 8.0],[8.0 5.0],[9.0 6.0],[10.0 8.0],[8.0 12.0],[6.0 9.0],[0.0 0.0],[10.0 10.0],[9.0 8.0],[9.0 8.0],[8.0 8.0]]
[[8.0 6.0],[8.0 7.0],[10.0 9.0],[7.0 11.0],[9.0 1.0E9],[7.0 12.0],[9.0 9.0],[8.0 8.0],[7.0 11.0],[10.0 12.0],[8.0 7.0],[10.0 7.0],[8.0 8.0],[8.0 8.0],[7.0 6.0],[7.0 10.0],[0.0 0.0],[8.0 10.0],[11.0 10.0],[6.0 7.0]]
[[6.0 5.0],[11.0 10.0],[10.0 8.0],[10.0 10.0],[11.0 1.0E9],[6.0 11.0],[11.0 11.0],[8.0 9.0],[7.0 8.0],[8.0 10.0],[7.0 8.0],[10.0 6.0],[6.0 8.0],[11.0 12.0],[10.0 9.0],[7.0 9.0],[6.0 9.0],[0.0 0.0],[9.0 8.0],[9.0 9.0]]
[[8.0 8.0],[7.0 8.0],[8.0 7.0],[11.0 9.0],[11.0 1.0E9],[7.0 8.0],[9.0 10.0],[7.0 7.0],[11.0 7.0],[12.0 7.0],[8.0 6.0],[9.0 7.0],[7.0 7.0],[10.0 12.0],[10.0 9.0],[10.0 10.0],[9.0 10.0],[9.0 10.0],[0.0 0.0],[8.0 6.0]]
[[6.0 8.0],[9.0 9.0],[5.0 7.0],[7.0 7.0],[12.0 1.0E9],[10.0 11.0],[10.0 6.0],[7.0 9.0],[8.0 11.0],[10.0 9.0],[6.0 7.0],[7.0 7.0],[6.0 6.0],[13.0 10.0],[9.0 8.0],[11.0 8.0],[8.0 10.0],[11.0 6.0],[8.0 6.0],[0.0 0.0]]];
Cijk = [[[0.0 0.0],[10.0 11.0],[7.0 8.0],[12.0 8.0],[11.0 1.0E9],[6.0 7.0],[7.0 10.0],[7.0 8.0],[7.0 10.0],[9.0 13.0],[9.0 6.0],[10.0 11.0],[11.0 8.0],[7.0 8.0],[7.0 10.0],[8.0 12.0],[7.0 7.0],[6.0 10.0],[9.0 11.0],[5.0 6.0]]
[[5.0 9.0],[0.0 0.0],[8.0 8.0],[8.0 11.0],[9.0 1.0E9],[9.0 11.0],[12.0 11.0],[7.0 11.0],[7.0 7.0],[7.0 8.0],[10.0 8.0],[8.0 7.0],[9.0 10.0],[12.0 10.0],[6.0 10.0],[12.0 7.0],[7.0 6.0],[6.0 8.0],[6.0 10.0],[10.0 8.0]]
[[6.0 7.0],[10.0 11.0],[0.0 0.0],[12.0 10.0],[9.0 1.0E9],[9.0 8.0],[6.0 12.0],[8.0 8.0],[10.0 10.0],[8.0 12.0],[8.0 6.0],[7.0 8.0],[8.0 10.0],[8.0 8.0],[10.0 7.0],[9.0 11.0],[6.0 10.0],[10.0 8.0],[10.0 9.0],[8.0 6.0]]
[[7.0 6.0],[8.0 11.0],[9.0 7.0],[0.0 0.0],[7.0 1.0E9],[11.0 9.0],[7.0 9.0],[9.0 9.0],[7.0 7.0],[11.0 12.0],[5.0 6.0],[10.0 6.0],[9.0 10.0],[8.0 10.0],[11.0 9.0],[7.0 12.0],[10.0 10.0],[8.0 9.0],[7.0 7.0],[9.0 6.0]]
[[7.0 8.0],[10.0 7.0],[10.0 10.0],[7.0 8.0],[0.0 0.0],[12.0 11.0],[10.0 9.0],[6.0 7.0],[8.0 10.0],[9.0 10.0],[8.0 8.0],[9.0 7.0],[7.0 8.0],[12.0 12.0],[9.0 6.0],[8.0 7.0],[6.0 8.0],[11.0 8.0],[9.0 7.0],[10.0 9.0]]
[[8.0 8.0],[10.0 12.0],[9.0 6.0],[12.0 8.0],[9.0 1.0E9],[0.0 0.0],[9.0 8.0],[9.0 11.0],[8.0 9.0],[10.0 10.0],[9.0 6.0],[9.0 7.0],[10.0 8.0],[10.0 12.0],[10.0 8.0],[10.0 12.0],[9.0 9.0],[9.0 7.0],[11.0 11.0],[9.0 9.0]]
[[8.0 7.0],[7.0 12.0],[10.0 9.0],[8.0 11.0],[12.0 1.0E9],[9.0 11.0],[0.0 0.0],[7.0 11.0],[11.0 8.0],[8.0 10.0],[6.0 7.0],[11.0 8.0],[10.0 10.0],[12.0 7.0],[7.0 9.0],[8.0 7.0],[11.0 7.0],[9.0 9.0],[9.0 11.0],[9.0 5.0]]
[[5.0 8.0],[8.0 11.0],[10.0 8.0],[10.0 9.0],[7.0 1.0E9],[8.0 8.0],[6.0 7.0],[0.0 0.0],[8.0 10.0],[8.0 12.0],[8.0 9.0],[9.0 11.0],[9.0 8.0],[11.0 10.0],[9.0 11.0],[12.0 7.0],[9.0 6.0],[8.0 10.0],[10.0 9.0],[9.0 6.0]]
[[6.0 9.0],[12.0 12.0],[8.0 9.0],[12.0 8.0],[10.0 1.0E9],[7.0 9.0],[10.0 12.0],[11.0 7.0],[0.0 0.0],[12.0 8.0],[6.0 8.0],[9.0 8.0],[11.0 7.0],[7.0 7.0],[8.0 10.0],[8.0 9.0],[7.0 10.0],[11.0 10.0],[6.0 7.0],[7.0 7.0]]
[[5.0 7.0],[11.0 12.0],[6.0 10.0],[10.0 7.0],[8.0 1.0E9],[9.0 7.0],[11.0 9.0],[11.0 7.0],[11.0 8.0],[0.0 0.0],[9.0 7.0],[8.0 10.0],[6.0 10.0],[7.0 8.0],[10.0 8.0],[7.0 11.0],[8.0 8.0],[8.0 10.0],[9.0 10.0],[8.0 8.0]]
[[8.0 9.0],[8.0 12.0],[9.0 10.0],[10.0 8.0],[7.0 1.0E9],[10.0 10.0],[9.0 9.0],[9.0 9.0],[7.0 11.0],[10.0 10.0],[0.0 0.0],[11.0 6.0],[7.0 7.0],[7.0 9.0],[9.0 6.0],[9.0 7.0],[11.0 6.0],[10.0 8.0],[7.0 8.0],[10.0 9.0]]
[[8.0 7.0],[11.0 12.0],[9.0 8.0],[8.0 8.0],[7.0 1.0E9],[9.0 7.0],[8.0 7.0],[11.0 7.0],[10.0 10.0],[8.0 10.0],[8.0 8.0],[0.0 0.0],[6.0 6.0],[12.0 12.0],[6.0 10.0],[11.0 9.0],[6.0 8.0],[9.0 7.0],[6.0 10.0],[8.0 9.0]]
[[7.0 9.0],[8.0 8.0],[9.0 7.0],[11.0 11.0],[8.0 1.0E9],[12.0 8.0],[10.0 7.0],[9.0 8.0],[12.0 9.0],[12.0 9.0],[9.0 8.0],[8.0 10.0],[0.0 0.0],[10.0 13.0],[10.0 10.0],[10.0 10.0],[6.0 9.0],[7.0 9.0],[6.0 7.0],[6.0 9.0]]
[[7.0 7.0],[7.0 10.0],[10.0 7.0],[12.0 11.0],[8.0 1.0E9],[10.0 8.0],[10.0 10.0],[11.0 10.0],[9.0 11.0],[11.0 12.0],[6.0 7.0],[7.0 8.0],[11.0 10.0],[0.0 0.0],[6.0 6.0],[11.0 7.0],[8.0 11.0],[8.0 9.0],[6.0 9.0],[9.0 8.0]]
[[6.0 9.0],[10.0 10.0],[9.0 7.0],[9.0 10.0],[8.0 1.0E9],[11.0 9.0],[9.0 11.0],[10.0 11.0],[12.0 9.0],[7.0 10.0],[8.0 8.0],[11.0 6.0],[7.0 10.0],[11.0 9.0],[0.0 0.0],[11.0 12.0],[10.0 8.0],[11.0 10.0],[8.0 6.0],[9.0 9.0]]
[[6.0 8.0],[11.0 12.0],[7.0 7.0],[8.0 12.0],[7.0 1.0E9],[10.0 11.0],[8.0 11.0],[7.0 7.0],[10.0 10.0],[7.0 8.0],[8.0 5.0],[9.0 6.0],[10.0 8.0],[8.0 12.0],[6.0 9.0],[0.0 0.0],[10.0 10.0],[9.0 8.0],[9.0 8.0],[8.0 8.0]]
[[8.0 6.0],[8.0 7.0],[10.0 9.0],[7.0 11.0],[9.0 1.0E9],[7.0 12.0],[9.0 9.0],[8.0 8.0],[7.0 11.0],[10.0 12.0],[8.0 7.0],[10.0 7.0],[8.0 8.0],[8.0 8.0],[7.0 6.0],[7.0 10.0],[0.0 0.0],[8.0 10.0],[11.0 10.0],[6.0 7.0]]
[[6.0 5.0],[11.0 10.0],[10.0 8.0],[10.0 10.0],[11.0 1.0E9],[6.0 11.0],[11.0 11.0],[8.0 9.0],[7.0 8.0],[8.0 10.0],[7.0 8.0],[10.0 6.0],[6.0 8.0],[11.0 12.0],[10.0 9.0],[7.0 9.0],[6.0 9.0],[0.0 0.0],[9.0 8.0],[9.0 9.0]]
[[8.0 8.0],[7.0 8.0],[8.0 7.0],[11.0 9.0],[11.0 1.0E9],[7.0 8.0],[9.0 10.0],[7.0 7.0],[11.0 7.0],[12.0 7.0],[8.0 6.0],[9.0 7.0],[7.0 7.0],[10.0 12.0],[10.0 9.0],[10.0 10.0],[9.0 10.0],[9.0 10.0],[0.0 0.0],[8.0 6.0]]
[[6.0 8.0],[9.0 9.0],[5.0 7.0],[7.0 7.0],[12.0 1.0E9],[10.0 11.0],[10.0 6.0],[7.0 9.0],[8.0 11.0],[10.0 9.0],[6.0 7.0],[7.0 7.0],[6.0 6.0],[13.0 10.0],[9.0 8.0],[11.0 8.0],[8.0 10.0],[11.0 6.0],[8.0 6.0],[0.0 0.0]]];
Hi = [0.2 0.2 0.2 0.2 0.2 0.2 0.2 0.2 0.2 0.2 0.2 0.2 0.2 0.2 0.2 0.2 0.2 0.2 0.2 0.2];
